p edge 34 64
e 1 6
e 1 9
e 1 10
e 1 12
e 1 15
e 1 16
e 1 18
e 1 26
e 2 4
e 2 9
e 2 11
e 2 21
e 2 23
e 2 25
e 3 13
e 3 22
e 3 31
e 4 5
e 4 7
e 4 10
e 4 12
e 4 20
e 4 21
e 5 8
e 5 10
e 5 16
e 5 33
e 6 13
e 6 14
e 6 34
e 7 10
e 7 13
e 8 16
e 8 22
e 8 26
e 8 27
e 8 29
e 8 33
e 9 10
e 9 11
e 9 12
e 9 16
e 9 18
e 10 12
e 10 18
e 11 23
e 11 25
e 12 18
e 12 21
e 14 30
e 14 34
e 15 24
e 15 26
e 15 32
e 16 17
e 17 20
e 17 27
e 19 28
e 22 29
e 23 25
e 23 27
e 24 26
e 24 32
e 31 33
